% Generated FlatZinc statistics:
%%%mzn-stat: paths=0
%%%mzn-stat: flatBoolVars=467590
%%%mzn-stat: flatIntVars=162351
%%%mzn-stat: flatBoolConstraints=163660
%%%mzn-stat: flatIntConstraints=645481
%%%mzn-stat: evaluatedReifiedConstraints=466620
%%%mzn-stat: evaluatedHalfReifiedConstraints=314110
%%%mzn-stat: method="minimize"
%%%mzn-stat: flatTime=19.5797
%%%mzn-stat-end

agentAtTimeT = array2d(1..35, 1..10, [86, 106, 180, 97, 412, 168, 285, 380, 425, 217, 87, 123, 181, 114, 413, 169, 266, 379, 426, 216, 88, 140, 201, 129, 414, 189, 265, 378, 427, 194, 89, 159, 202, 149, 434, 190, 245, 363, 428, 193, 90, 180, 203, 168, 435, 191, 244, 345, 429, 192, 91, 181, 204, 167, 436, 192, 223, 344, 409, 191, 92, 182, 205, 188, 437, 193, 203, 326, 391, 190, 93, 183, 206, 210, 416, 194, 202, 325, 373, 189, 94, 203, 207, 230, 417, 216, 201, 324, 356, 212, 95, 223, 208, 250, 418, 236, 200, 323, 339, 211, 73, 244, 209, 249, 419, 255, 200, 322, 340, 210, 53, 245, 210, 248, 420, 256, 200, 321, 341, 209, 32, 265, 211, 247, 421, 256, 200, 320, 321, 208, 33, 284, 212, 267, 422, 256, 200, 319, 322, 187, 34, 301, 232, 287, 401, 256, 200, 318, 323, 186, 35, 318, 232, 286, 383, 256, 200, 317, 324, 186, 36, 319, 232, 303, 367, 256, 200, 338, 325, 186, 16, 320, 232, 302, 350, 256, 200, 337, 307, 186, 16, 321, 232, 319, 332, 256, 200, 336, 308, 186, 16, 322, 232, 339, 332, 256, 200, 335, 291, 186, 16, 323, 232, 356, 332, 256, 200, 353, 292, 186, 16, 324, 232, 373, 332, 256, 200, 370, 271, 186, 16, 325, 232, 391, 332, 256, 200, 370, 252, 186, 16, 326, 232, 409, 332, 256, 200, 370, 233, 186, 16, 327, 232, 409, 332, 256, 200, 370, 213, 186, 16, 328, 232, 409, 332, 256, 200, 370, 214, 186, 16, 329, 232, 409, 332, 256, 200, 370, 215, 186, 16, 329, 232, 409, 332, 256, 200, 370, 192, 186, 16, 329, 232, 409, 332, 256, 200, 370, 172, 186, 16, 329, 232, 409, 332, 256, 200, 370, 152, 186, 16, 329, 232, 409, 332, 256, 200, 370, 153, 186, 16, 329, 232, 409, 332, 256, 200, 370, 153, 186, 16, 329, 232, 409, 332, 256, 200, 370, 153, 186, 16, 329, 232, 409, 332, 256, 200, 370, 153, 186, 16, 329, 232, 409, 332, 256, 200, 370, 153, 186]);
ET = [18, 27, 15, 24, 19, 12, 10, 22, 31, 15];
objective = 193;
----------
==========
%%%mzn-stat: objective=193
%%%mzn-stat: objectiveBound=193
%%%mzn-stat: boolVariables=116124
%%%mzn-stat: failures=9275
%%%mzn-stat: propagations=8577082
%%%mzn-stat: solveTime=28.6542
%%%mzn-stat: nSolutions=1
%%%mzn-stat-end
